29479
1 0 1 0 1 1 1 1 0 1 0 1 1 1 1 0 1 1 1 0 1 1 1 1 0 1 1 0 1 0 
18 6 21 22 2 12 21 28 22 28 4 28 13 13 28 18 13 20 22 0 18 16 5 0 23 18 22 17 4 2 6 4 4 16 0 6 20 9 16 16 18 9 6 4 20 26 13 21 6 14 0 16 2 16 20 6 11 9 18 25 4 0 7 20 13 11 5 14 28 25 18 12 6 9 23 23 20 23 20 16 23 0 9 25 4 13 4 5 22 7 28 6 25 25 2 13 28 6 0 28 17 21 25 7 4 0 4 16 22 13 14 4 18 12 12 20 28 7 17 20 26 11 17 6 26 16 2 11 26 17 28 21 25 20 23 9 13 13 28 14 12 22 11 11 25 5 16 21 18 25 0 17 23 0 13 11 2 16 13 13 13 0 23 2 5 18 5 4 13 21 5 20 28 14 26 2 0 20 4 20 5 21 2 6 12 9 28 23 0 21 2 21 6 4 7 12 7 21 23 6 
